outputs/case_377.model.txt
required_ratio = 200
semiannual_report_submission_days = 7
annual_report_submission_days = 7
net_worth = 20
own_capital = 150
annual_report_submitted = True
semiannual_report_submitted = True
net_worth_ratio = 20
risk_capital = 100
under_supervision = True
reporting_compliance = True
capital_ratio_ok = False
capital_level = 1
penalty = False
/0 = [(150, 100) -> 3/2, else -> 1/5]